Hamiltoninan_Cycle/benchmarks_directed/graph100.hcp
NAME : Directed Graph
COMMENT : H Algorithm by Oscar Riveros
TYPE : HCP
DIMENSION : 100
EDGE_DATA_FORMAT : EDGE_LIST
EDGE_DATA_SECTION
1 9
1 15
1 17
1 18
1 19
1 20
1 23
1 24
1 25
1 30
1 31
1 35
1 39
1 41
1 48
1 51
1 53
1 54
1 57
1 59
1 64
1 67
1 68
1 69
1 71
1 73
1 74
1 75
1 77
1 85
1 87
1 93
1 94
1 95
1 100
2 5
2 12
2 13
2 16
2 17
2 20
2 24
2 26
2 29
2 31
2 32
2 35
2 37
2 39
2 46
2 47
2 49
2 54
2 57
2 66
2 68
2 71
2 72
2 73
2 81
2 85
2 86
2 90
2 93
2 94
2 99
3 1
3 4
3 5
3 6
3 8
3 11
3 16
3 17
3 19
3 20
3 23
3 24
3 27
3 31
3 33
3 34
3 37
3 38
3 45
3 47
3 49
3 52
3 55
3 56
3 64
3 65
3 66
3 67
3 68
3 69
3 73
3 80
3 82
3 86
3 87
3 90
3 94
3 95
3 99
4 7
4 8
4 9
4 12
4 13
4 14
4 15
4 16
4 17
4 30
4 31
4 33
4 34
4 35
4 36
4 39
4 43
4 45
4 46
4 50
4 54
4 56
4 61
4 63
4 65
4 67
4 73
4 74
4 79
4 85
4 86
4 88
4 90
4 92
4 97
4 98
4 99
4 100
5 1
5 2
5 4
5 7
5 8
5 13
5 15
5 19
5 20
5 22
5 31
5 33
5 34
5 35
5 37
5 38
5 39
5 41
5 50
5 51
5 54
5 56
5 58
5 62
5 67
5 68
5 74
5 75
5 78
5 83
5 84
5 86
5 87
5 88
5 89
5 91
5 93
5 96
5 99
6 1
6 2
6 4
6 5
6 10
6 14
6 16
6 17
6 18
6 20
6 21
6 25
6 27
6 30
6 31
6 32
6 34
6 36
6 37
6 39
6 42
6 47
6 48
6 49
6 50
6 61
6 62
6 63
6 67
6 69
6 71
6 75
6 78
6 80
6 84
6 86
6 87
6 89
6 91
6 95
6 96
7 6
7 8
7 9
7 15
7 16
7 18
7 21
7 35
7 36
7 37
7 38
7 41
7 42
7 46
7 48
7 49
7 50
7 52
7 54
7 56
7 60
7 62
7 65
7 66
7 67
7 69
7 71
7 72
7 73
7 77
7 80
7 81
7 84
7 86
7 91
7 93
7 94
7 96
7 97
8 2
8 6
8 7
8 10
8 15
8 25
8 28
8 29
8 31
8 33
8 35
8 42
8 45
8 50
8 51
8 52
8 56
8 58
8 61
8 63
8 64
8 65
8 68
8 71
8 74
8 81
8 86
8 91
8 92
8 93
8 95
8 97
8 99
8 100
9 1
9 2
9 3
9 7
9 12
9 18
9 20
9 21
9 22
9 24
9 28
9 30
9 31
9 34
9 46
9 49
9 51
9 53
9 55
9 56
9 58
9 61
9 65
9 71
9 72
9 74
9 76
9 79
9 85
9 87
9 88
9 89
9 90
9 91
9 92
9 95
9 96
9 97
10 1
10 2
10 4
10 12
10 14
10 15
10 18
10 24
10 25
10 27
10 31
10 35
10 36
10 37
10 38
10 39
10 41
10 42
10 43
10 44
10 45
10 47
10 48
10 50
10 52
10 54
10 56
10 59
10 62
10 65
10 66
10 68
10 71
10 72
10 73
10 75
10 76
10 77
10 79
10 85
10 87
10 90
10 92
10 94
10 100
11 3
11 8
11 12
11 13
11 15
11 21
11 22
11 23
11 24
11 28
11 31
11 34
11 37
11 40
11 43
11 48
11 53
11 54
11 57
11 58
11 59
11 66
11 69
11 72
11 73
11 74
11 75
11 76
11 77
11 78
11 83
11 86
11 90
11 92
12 3
12 4
12 7
12 8
12 11
12 13
12 19
12 20
12 21
12 22
12 23
12 26
12 27
12 31
12 34
12 39
12 41
12 42
12 43
12 51
12 53
12 54
12 55
12 56
12 57
12 58
12 61
12 66
12 67
12 72
12 73
12 74
12 75
12 76
12 77
12 78
12 79
12 82
12 83
12 85
12 86
12 89
12 90
12 93
12 94
12 95
12 96
12 97
12 100
13 3
13 7
13 9
13 11
13 15
13 19
13 22
13 23
13 26
13 30
13 31
13 34
13 36
13 38
13 41
13 43
13 44
13 46
13 47
13 48
13 50
13 61
13 62
13 63
13 66
13 68
13 72
13 76
13 78
13 80
13 82
13 84
13 88
13 91
13 92
13 93
13 95
13 97
13 99
13 100
14 2
14 4
14 5
14 6
14 8
14 9
14 10
14 13
14 15
14 18
14 20
14 21
14 22
14 23
14 28
14 30
14 31
14 35
14 37
14 38
14 40
14 44
14 45
14 46
14 47
14 48
14 51
14 61
14 64
14 77
14 79
14 80
14 82
14 88
14 100
15 4
15 9
15 10
15 12
15 16
15 19
15 21
15 22
15 24
15 25
15 26
15 27
15 29
15 33
15 36
15 37
15 41
15 42
15 50
15 56
15 57
15 59
15 60
15 63
15 64
15 65
15 67
15 68
15 72
15 79
15 80
15 81
15 86
15 87
15 88
15 89
15 95
16 4
16 8
16 12
16 17
16 21
16 24
16 30
16 32
16 35
16 36
16 39
16 40
16 47
16 48
16 50
16 51
16 55
16 56
16 59
16 63
16 65
16 66
16 71
16 73
16 77
16 79
16 82
16 83
16 85
16 88
16 89
16 91
16 93
16 94
16 95
16 96
16 97
16 99
17 7
17 11
17 12
17 21
17 24
17 28
17 29
17 31
17 32
17 35
17 37
17 41
17 42
17 47
17 50
17 51
17 52
17 54
17 55
17 56
17 57
17 59
17 70
17 73
17 75
17 77
17 78
17 81
17 83
17 85
17 86
17 87
17 88
17 90
17 95
17 97
17 98
18 2
18 5
18 6
18 7
18 8
18 9
18 11
18 13
18 15
18 16
18 17
18 24
18 25
18 27
18 28
18 29
18 30
18 34
18 35
18 39
18 43
18 47
18 49
18 50
18 54
18 56
18 57
18 60
18 61
18 63
18 64
18 67
18 70
18 73
18 77
18 80
18 81
18 82
18 83
18 89
18 90
18 98
19 1
19 9
19 10
19 12
19 17
19 18
19 20
19 21
19 23
19 35
19 39
19 41
19 42
19 46
19 49
19 50
19 51
19 52
19 55
19 58
19 61
19 62
19 64
19 65
19 68
19 69
19 70
19 73
19 76
19 82
19 85
19 86
19 93
19 99
20 3
20 5
20 6
20 7
20 11
20 12
20 16
20 26
20 28
20 29
20 35
20 38
20 39
20 40
20 46
20 51
20 52
20 57
20 58
20 59
20 61
20 63
20 65
20 66
20 68
20 69
20 70
20 71
20 72
20 76
20 79
20 80
20 83
20 86
20 87
20 90
20 92
20 95
20 98
20 99
21 2
21 6
21 7
21 8
21 11
21 13
21 15
21 16
21 20
21 22
21 23
21 25
21 26
21 27
21 28
21 33
21 35
21 36
21 41
21 45
21 49
21 50
21 51
21 56
21 58
21 59
21 64
21 68
21 71
21 72
21 76
21 78
21 79
21 80
21 82
21 83
21 84
21 89
21 99
21 100
22 2
22 5
22 7
22 8
22 9
22 10
22 12
22 13
22 14
22 19
22 25
22 26
22 27
22 32
22 33
22 34
22 39
22 40
22 46
22 50
22 52
22 54
22 56
22 57
22 58
22 60
22 61
22 64
22 66
22 67
22 68
22 70
22 71
22 72
22 74
22 75
22 78
22 83
22 89
22 92
22 94
22 99
23 3
23 5
23 6
23 7
23 11
23 12
23 16
23 17
23 18
23 19
23 27
23 32
23 33
23 36
23 38
23 39
23 40
23 41
23 42
23 43
23 44
23 47
23 49
23 52
23 53
23 54
23 55
23 59
23 60
23 63
23 65
23 66
23 68
23 69
23 71
23 79
23 80
23 83
23 84
23 87
23 88
23 89
23 91
23 94
23 96
23 97
23 99
24 1
24 3
24 4
24 5
24 7
24 12
24 15
24 16
24 19
24 22
24 30
24 31
24 32
24 41
24 44
24 52
24 57
24 60
24 63
24 64
24 65
24 67
24 70
24 71
24 73
24 75
24 77
24 79
24 80
24 82
24 83
24 85
24 86
24 90
24 94
24 97
25 1
25 5
25 6
25 7
25 9
25 11
25 14
25 15
25 16
25 17
25 18
25 21
25 23
25 27
25 32
25 34
25 35
25 36
25 38
25 39
25 41
25 44
25 45
25 48
25 50
25 55
25 56
25 57
25 58
25 60
25 64
25 65
25 67
25 71
25 82
25 85
25 86
25 87
25 92
25 93
25 94
25 96
25 97
25 98
26 5
26 6
26 8
26 10
26 12
26 15
26 16
26 19
26 21
26 25
26 27
26 29
26 30
26 31
26 35
26 39
26 43
26 49
26 52
26 56
26 57
26 58
26 60
26 61
26 70
26 75
26 76
26 77
26 78
26 82
26 83
26 84
26 89
26 91
26 93
26 94
26 95
26 99
27 4
27 13
27 14
27 15
27 18
27 22
27 26
27 28
27 29
27 33
27 34
27 35
27 37
27 43
27 44
27 49
27 51
27 52
27 54
27 56
27 57
27 62
27 64
27 67
27 71
27 72
27 73
27 75
27 76
27 81
27 82
27 83
27 85
27 87
27 88
27 89
27 92
27 93
27 94
27 96
28 1
28 2
28 4
28 5
28 9
28 11
28 12
28 17
28 19
28 21
28 24
28 32
28 33
28 34
28 38
28 41
28 43
28 49
28 50
28 53
28 54
28 56
28 58
28 59
28 62
28 69
28 71
28 73
28 78
28 79
28 81
28 84
28 85
28 86
28 92
28 100
29 1
29 5
29 10
29 11
29 14
29 15
29 17
29 18
29 28
29 30
29 31
29 32
29 33
29 38
29 42
29 44
29 52
29 55
29 58
29 59
29 61
29 64
29 72
29 73
29 82
29 91
29 94
29 97
29 98
30 2
30 6
30 7
30 8
30 9
30 11
30 12
30 13
30 15
30 18
30 20
30 21
30 22
30 23
30 24
30 25
30 31
30 32
30 33
30 37
30 40
30 43
30 44
30 46
30 47
30 51
30 58
30 60
30 63
30 66
30 67
30 69
30 71
30 72
30 73
30 74
30 76
30 77
30 80
30 82
30 86
30 87
30 88
30 93
30 94
30 96
30 97
30 100
31 1
31 2
31 8
31 9
31 10
31 11
31 14
31 15
31 18
31 20
31 26
31 27
31 34
31 36
31 41
31 42
31 43
31 45
31 46
31 47
31 49
31 52
31 53
31 60
31 65
31 68
31 70
31 71
31 77
31 80
31 81
31 83
31 84
31 86
31 87
31 89
31 90
31 91
31 92
31 94
31 100
32 1
32 2
32 3
32 4
32 5
32 6
32 8
32 9
32 10
32 13
32 15
32 17
32 18
32 19
32 22
32 33
32 39
32 41
32 44
32 45
32 50
32 53
32 56
32 60
32 63
32 71
32 73
32 77
32 80
32 83
32 85
32 90
32 97
32 98
32 100
33 1
33 5
33 8
33 11
33 12
33 13
33 14
33 16
33 22
33 27
33 29
33 30
33 31
33 32
33 37
33 39
33 41
33 42
33 46
33 49
33 50
33 53
33 64
33 66
33 68
33 70
33 71
33 72
33 74
33 83
33 88
33 89
33 91
33 93
33 97
33 98
34 3
34 7
34 10
34 13
34 16
34 17
34 19
34 26
34 31
34 32
34 33
34 35
34 38
34 39
34 40
34 41
34 42
34 43
34 45
34 49
34 51
34 52
34 54
34 55
34 57
34 60
34 63
34 65
34 67
34 68
34 69
34 70
34 71
34 72
34 74
34 76
34 81
34 83
34 85
34 87
34 89
34 90
34 91
34 92
34 95
34 96
34 99
34 100
35 1
35 4
35 5
35 6
35 10
35 11
35 15
35 17
35 18
35 19
35 20
35 23
35 26
35 27
35 28
35 30
35 31
35 32
35 37
35 38
35 42
35 46
35 47
35 49
35 55
35 58
35 59
35 61
35 65
35 67
35 70
35 73
35 74
35 75
35 78
35 82
35 85
35 86
35 87
35 88
35 91
35 92
35 94
35 95
35 97
35 98
36 3
36 4
36 5
36 9
36 10
36 12
36 13
36 18
36 20
36 23
36 24
36 26
36 28
36 29
36 30
36 34
36 38
36 39
36 40
36 44
36 45
36 52
36 53
36 56
36 60
36 62
36 64
36 65
36 69
36 81
36 82
36 84
36 85
36 86
36 89
36 94
36 98
37 2
37 6
37 8
37 10
37 12
37 13
37 17
37 18
37 19
37 21
37 22
37 27
37 31
37 32
37 33
37 35
37 39
37 43
37 45
37 50
37 51
37 52
37 57
37 59
37 66
37 69
37 70
37 71
37 72
37 75
37 76
37 79
37 80
37 81
37 91
37 93
37 94
37 96
37 98
37 100
38 4
38 5
38 6
38 8
38 9
38 10
38 11
38 15
38 17
38 20
38 21
38 23
38 25
38 28
38 33
38 34
38 35
38 41
38 42
38 43
38 45
38 47
38 48
38 49
38 52
38 59
38 60
38 71
38 73
38 74
38 75
38 78
38 80
38 81
38 85
38 87
38 89
38 93
38 94
38 98
38 99
39 1
39 10
39 11
39 12
39 13
39 14
39 15
39 21
39 23
39 25
39 26
39 27
39 32
39 33
39 34
39 42
39 45
39 51
39 52
39 56
39 57
39 59
39 62
39 63
39 65
39 66
39 67
39 68
39 69
39 70
39 73
39 78
39 81
39 88
39 89
39 90
39 91
39 92
39 95
39 98
40 2
40 3
40 9
40 16
40 18
40 19
40 21
40 25
40 26
40 28
40 29
40 30
40 34
40 38
40 39
40 41
40 44
40 46
40 48
40 51
40 54
40 56
40 58
40 59
40 61
40 63
40 64
40 69
40 73
40 75
40 76
40 80
40 81
40 82
40 86
40 87
40 88
40 95
40 97
40 98
40 99
41 2
41 3
41 4
41 6
41 10
41 12
41 18
41 23
41 27
41 28
41 29
41 31
41 32
41 35
41 44
41 45
41 49
41 51
41 52
41 53
41 55
41 58
41 63
41 64
41 65
41 67
41 71
41 74
41 76
41 78
41 83
41 86
41 87
41 88
41 90
41 96
41 99
42 2
42 6
42 7
42 9
42 10
42 11
42 15
42 17
42 18
42 19
42 20
42 24
42 28
42 29
42 31
42 32
42 35
42 36
42 37
42 44
42 59
42 60
42 63
42 67
42 68
42 72
42 78
42 82
42 83
42 84
42 87
42 93
42 98
43 2
43 4
43 11
43 17
43 19
43 23
43 24
43 28
43 29
43 31
43 37
43 38
43 40
43 42
43 44
43 45
43 46
43 47
43 49
43 54
43 55
43 56
43 57
43 64
43 65
43 66
43 67
43 77
43 78
43 79
43 80
43 81
43 89
43 90
43 93
43 94
43 96
43 98
44 6
44 7
44 8
44 9
44 11
44 12
44 16
44 17
44 18
44 20
44 21
44 23
44 27
44 31
44 33
44 35
44 37
44 39
44 40
44 46
44 49
44 52
44 57
44 59
44 61
44 62
44 69
44 70
44 71
44 72
44 73
44 75
44 77
44 81
44 83
44 84
44 88
44 89
44 93
44 95
44 96
44 98
45 1
45 2
45 4
45 14
45 15
45 20
45 21
45 24
45 28
45 29
45 41
45 43
45 46
45 49
45 53
45 54
45 56
45 58
45 61
45 70
45 72
45 73
45 74
45 75
45 81
45 83
45 92
45 94
45 96
45 99
46 2
46 4
46 6
46 9
46 12
46 13
46 15
46 16
46 17
46 19
46 21
46 26
46 27
46 29
46 31
46 32
46 34
46 41
46 43
46 44
46 50
46 53
46 54
46 56
46 57
46 59
46 60
46 62
46 63
46 65
46 71
46 74
46 75
46 76
46 77
46 80
46 91
46 95
46 96
46 97
46 98
47 1
47 3
47 4
47 5
47 9
47 12
47 13
47 16
47 19
47 21
47 23
47 24
47 26
47 28
47 30
47 31
47 32
47 35
47 37
47 41
47 46
47 50
47 51
47 57
47 62
47 63
47 66
47 69
47 70
47 71
47 76
47 78
47 81
47 82
47 86
47 87
47 88
47 91
47 92
47 95
47 96
48 4
48 5
48 10
48 12
48 14
48 15
48 16
48 20
48 23
48 24
48 27
48 28
48 31
48 32
48 33
48 39
48 40
48 43
48 46
48 50
48 51
48 52
48 59
48 60
48 61
48 63
48 65
48 66
48 67
48 68
48 69
48 70
48 72
48 75
48 78
48 80
48 81
48 83
48 85
48 87
48 89
48 90
48 92
48 93
48 95
48 96
48 98
48 99
48 100
49 2
49 6
49 8
49 12
49 13
49 17
49 18
49 20
49 21
49 24
49 26
49 30
49 31
49 33
49 35
49 36
49 37
49 40
49 41
49 42
49 45
49 46
49 47
49 50
49 51
49 54
49 56
49 57
49 58
49 59
49 63
49 74
49 79
49 80
49 81
49 82
49 83
49 85
49 86
49 87
49 88
49 89
49 90
49 91
49 92
49 93
49 95
49 97
49 98
50 8
50 10
50 12
50 18
50 19
50 20
50 23
50 24
50 25
50 27
50 29
50 30
50 34
50 35
50 39
50 41
50 42
50 45
50 48
50 51
50 53
50 55
50 56
50 58
50 60
50 61
50 62
50 64
50 65
50 66
50 67
50 69
50 70
50 71
50 74
50 78
50 83
50 86
50 88
50 90
50 91
50 92
50 93
50 96
50 97
50 99
50 100
51 1
51 2
51 5
51 6
51 7
51 14
51 15
51 16
51 20
51 23
51 25
51 28
51 30
51 33
51 34
51 36
51 46
51 49
51 54
51 57
51 58
51 59
51 61
51 62
51 64
51 65
51 69
51 70
51 71
51 72
51 73
51 77
51 80
51 81
51 83
51 84
51 86
51 88
51 89
51 90
51 91
51 92
51 93
51 94
51 95
51 97
51 99
51 100
52 4
52 5
52 6
52 7
52 9
52 10
52 17
52 22
52 24
52 27
52 28
52 32
52 34
52 37
52 39
52 40
52 47
52 48
52 49
52 55
52 57
52 62
52 63
52 67
52 68
52 71
52 72
52 76
52 78
52 79
52 80
52 84
52 86
52 87
52 88
52 89
52 91
52 93
52 95
52 98
53 1
53 2
53 3
53 6
53 7
53 9
53 10
53 11
53 12
53 13
53 14
53 15
53 16
53 18
53 19
53 20
53 25
53 27
53 32
53 34
53 36
53 40
53 41
53 43
53 46
53 47
53 49
53 50
53 52
53 58
53 59
53 60
53 62
53 68
53 71
53 72
53 73
53 75
53 78
53 79
53 80
53 81
53 83
53 88
53 94
53 95
53 96
53 100
54 1
54 4
54 5
54 8
54 16
54 17
54 19
54 20
54 22
54 23
54 25
54 27
54 29
54 31
54 32
54 33
54 36
54 38
54 39
54 41
54 44
54 45
54 49
54 50
54 51
54 52
54 58
54 70
54 72
54 75
54 76
54 78
54 79
54 82
54 88
54 94
54 96
54 99
54 100
55 2
55 4
55 7
55 8
55 12
55 22
55 27
55 28
55 32
55 34
55 35
55 36
55 37
55 39
55 41
55 42
55 47
55 50
55 53
55 54
55 56
55 57
55 58
55 60
55 61
55 62
55 63
55 64
55 65
55 66
55 78
55 79
55 81
55 82
55 84
55 87
55 88
55 91
55 93
55 96
56 3
56 4
56 6
56 7
56 9
56 10
56 11
56 12
56 24
56 30
56 31
56 32
56 35
56 40
56 42
56 46
56 48
56 50
56 52
56 53
56 55
56 60
56 66
56 68
56 70
56 71
56 74
56 75
56 77
56 78
56 79
56 83
56 84
56 88
56 89
56 90
56 98
57 2
57 4
57 8
57 10
57 11
57 15
57 16
57 21
57 23
57 28
57 31
57 32
57 36
57 37
57 38
57 40
57 43
57 49
57 51
57 52
57 54
57 56
57 60
57 62
57 65
57 68
57 69
57 71
57 73
57 77
57 80
57 83
57 86
57 90
57 93
57 96
57 98
57 99
58 3
58 4
58 5
58 12
58 13
58 18
58 19
58 21
58 22
58 28
58 31
58 37
58 42
58 47
58 53
58 59
58 60
58 62
58 63
58 69
58 70
58 71
58 72
58 75
58 76
58 77
58 82
58 84
58 86
58 88
58 91
58 93
58 94
58 96
59 1
59 4
59 9
59 10
59 12
59 13
59 14
59 16
59 18
59 19
59 20
59 30
59 31
59 34
59 35
59 44
59 48
59 49
59 53
59 57
59 58
59 60
59 62
59 65
59 69
59 71
59 78
59 82
59 83
59 86
59 87
59 88
59 89
59 97
59 99
60 1
60 5
60 9
60 13
60 15
60 18
60 22
60 24
60 30
60 31
60 33
60 34
60 36
60 44
60 50
60 52
60 53
60 64
60 70
60 73
60 75
60 76
60 79
60 84
60 88
60 89
60 90
60 94
60 96
60 99
61 1
61 2
61 5
61 6
61 10
61 13
61 14
61 18
61 23
61 24
61 26
61 27
61 29
61 31
61 33
61 34
61 37
61 38
61 39
61 40
61 43
61 45
61 46
61 49
61 53
61 57
61 58
61 59
61 63
61 65
61 73
61 80
61 81
61 82
61 83
61 84
61 86
61 87
61 90
61 93
61 95
61 96
61 99
62 2
62 3
62 5
62 6
62 9
62 11
62 12
62 13
62 14
62 15
62 16
62 18
62 19
62 21
62 23
62 25
62 28
62 29
62 33
62 36
62 41
62 42
62 43
62 45
62 46
62 48
62 53
62 55
62 56
62 57
62 58
62 59
62 61
62 63
62 68
62 70
62 72
62 73
62 74
62 79
62 83
62 86
62 87
62 88
62 89
62 92
62 93
62 98
62 99
63 3
63 5
63 12
63 16
63 17
63 20
63 21
63 22
63 29
63 31
63 34
63 35
63 36
63 39
63 40
63 42
63 47
63 49
63 50
63 52
63 53
63 54
63 55
63 57
63 60
63 61
63 65
63 67
63 71
63 79
63 80
63 83
63 85
63 87
63 88
63 89
63 90
63 91
63 92
63 93
63 96
63 98
63 100
64 2
64 3
64 7
64 9
64 10
64 11
64 13
64 15
64 18
64 19
64 22
64 25
64 26
64 31
64 33
64 36
64 41
64 43
64 46
64 47
64 50
64 52
64 53
64 54
64 57
64 58
64 59
64 60
64 61
64 62
64 63
64 65
64 66
64 68
64 70
64 71
64 83
64 84
64 87
64 89
64 93
64 96
64 99
65 4
65 9
65 12
65 14
65 23
65 25
65 27
65 28
65 32
65 38
65 41
65 44
65 46
65 50
65 51
65 52
65 54
65 61
65 63
65 64
65 69
65 70
65 71
65 72
65 73
65 74
65 75
65 76
65 77
65 78
65 79
65 87
65 90
65 98
65 100
66 1
66 3
66 5
66 7
66 16
66 17
66 22
66 26
66 29
66 30
66 32
66 35
66 38
66 40
66 45
66 46
66 47
66 49
66 55
66 57
66 60
66 62
66 67
66 68
66 69
66 73
66 74
66 77
66 78
66 84
66 85
66 86
66 87
66 89
66 90
66 92
66 93
66 94
66 97
66 98
66 100
67 1
67 3
67 4
67 5
67 8
67 9
67 14
67 15
67 19
67 20
67 21
67 31
67 33
67 34
67 35
67 36
67 38
67 39
67 44
67 48
67 50
67 51
67 55
67 57
67 60
67 61
67 62
67 69
67 71
67 72
67 74
67 78
67 79
67 80
67 81
67 82
67 86
67 89
67 90
67 94
67 98
67 99
67 100
68 1
68 3
68 10
68 11
68 12
68 22
68 24
68 26
68 27
68 30
68 33
68 34
68 35
68 36
68 37
68 38
68 40
68 46
68 49
68 50
68 53
68 54
68 55
68 59
68 61
68 64
68 67
68 75
68 76
68 78
68 79
68 83
68 84
68 86
68 90
68 91
68 93
68 94
68 97
68 98
68 100
69 2
69 5
69 6
69 9
69 10
69 11
69 12
69 17
69 18
69 21
69 36
69 40
69 41
69 43
69 45
69 47
69 49
69 51
69 52
69 57
69 59
69 60
69 62
69 63
69 64
69 68
69 70
69 71
69 72
69 75
69 78
69 79
69 86
69 88
69 90
69 91
69 92
69 94
69 96
69 97
69 98
69 99
69 100
70 5
70 6
70 7
70 8
70 10
70 13
70 15
70 17
70 20
70 21
70 25
70 28
70 29
70 31
70 33
70 34
70 40
70 42
70 43
70 48
70 50
70 52
70 53
70 56
70 58
70 62
70 63
70 77
70 78
70 81
70 83
70 89
70 90
70 94
70 97
70 99
70 100
71 1
71 2
71 4
71 5
71 9
71 11
71 12
71 20
71 21
71 22
71 23
71 24
71 26
71 33
71 39
71 47
71 48
71 52
71 55
71 56
71 60
71 62
71 63
71 64
71 68
71 69
71 72
71 73
71 74
71 78
71 79
71 84
71 88
71 89
71 94
71 96
71 99
72 3
72 4
72 6
72 7
72 13
72 16
72 26
72 27
72 28
72 30
72 32
72 34
72 37
72 42
72 44
72 45
72 46
72 47
72 49
72 52
72 53
72 54
72 58
72 60
72 62
72 64
72 67
72 68
72 70
72 71
72 73
72 74
72 81
72 82
72 88
72 94
72 97
72 98
72 99
72 100
73 1
73 3
73 5
73 8
73 10
73 11
73 13
73 16
73 23
73 24
73 26
73 31
73 32
73 37
73 41
73 46
73 49
73 50
73 52
73 54
73 56
73 57
73 61
73 64
73 65
73 66
73 69
73 75
73 83
73 88
73 90
73 92
73 94
73 95
73 97
74 1
74 2
74 3
74 4
74 5
74 11
74 19
74 27
74 30
74 31
74 32
74 33
74 34
74 37
74 38
74 40
74 44
74 48
74 49
74 50
74 53
74 54
74 58
74 60
74 61
74 62
74 63
74 64
74 65
74 69
74 71
74 72
74 75
74 77
74 79
74 81
74 92
74 94
74 100
75 1
75 6
75 11
75 13
75 14
75 16
75 18
75 19
75 22
75 23
75 24
75 25
75 27
75 28
75 31
75 34
75 40
75 41
75 44
75 48
75 49
75 50
75 52
75 53
75 55
75 58
75 63
75 66
75 69
75 70
75 77
75 78
75 80
75 82
75 83
75 97
75 100
76 2
76 3
76 4
76 14
76 15
76 16
76 18
76 19
76 20
76 21
76 22
76 23
76 29
76 33
76 35
76 36
76 37
76 38
76 39
76 40
76 41
76 42
76 43
76 44
76 48
76 51
76 52
76 53
76 54
76 55
76 58
76 59
76 61
76 63
76 64
76 65
76 66
76 67
76 69
76 70
76 72
76 73
76 75
76 81
76 82
76 84
76 94
76 97
76 98
76 99
77 1
77 3
77 7
77 9
77 11
77 14
77 18
77 20
77 21
77 22
77 23
77 30
77 33
77 34
77 35
77 37
77 38
77 39
77 45
77 47
77 57
77 60
77 61
77 62
77 65
77 66
77 73
77 75
77 79
77 83
77 88
77 89
77 94
77 96
77 97
77 98
78 4
78 9
78 10
78 11
78 13
78 16
78 17
78 18
78 19
78 22
78 25
78 26
78 29
78 30
78 31
78 34
78 37
78 38
78 41
78 42
78 45
78 48
78 50
78 52
78 54
78 55
78 57
78 59
78 60
78 62
78 69
78 72
78 76
78 81
78 82
78 83
78 84
78 85
78 86
78 87
78 92
78 96
78 98
79 1
79 2
79 13
79 14
79 18
79 19
79 20
79 22
79 25
79 26
79 27
79 32
79 33
79 37
79 38
79 39
79 41
79 42
79 43
79 47
79 52
79 58
79 60
79 61
79 65
79 70
79 71
79 75
79 76
79 77
79 78
79 80
79 81
79 91
79 93
79 94
79 96
79 99
80 4
80 5
80 6
80 7
80 18
80 21
80 22
80 25
80 32
80 34
80 39
80 40
80 42
80 43
80 45
80 53
80 54
80 61
80 62
80 63
80 65
80 81
80 85
80 87
80 97
80 99
80 100
81 7
81 10
81 14
81 15
81 17
81 22
81 23
81 26
81 28
81 33
81 34
81 36
81 39
81 40
81 41
81 45
81 47
81 52
81 53
81 54
81 56
81 57
81 59
81 61
81 69
81 70
81 73
81 75
81 80
81 84
81 88
81 92
81 100
82 5
82 6
82 8
82 10
82 11
82 14
82 17
82 18
82 19
82 21
82 23
82 24
82 25
82 26
82 29
82 33
82 34
82 35
82 43
82 45
82 49
82 53
82 55
82 58
82 59
82 60
82 62
82 65
82 69
82 70
82 71
82 72
82 77
82 80
82 81
82 88
82 90
82 91
82 92
82 95
82 97
82 99
82 100
83 1
83 2
83 4
83 7
83 10
83 11
83 12
83 14
83 18
83 20
83 21
83 22
83 24
83 25
83 27
83 31
83 33
83 36
83 41
83 43
83 48
83 50
83 55
83 58
83 59
83 61
83 62
83 66
83 68
83 69
83 71
83 74
83 75
83 79
83 80
83 81
83 86
83 90
83 91
83 92
83 93
83 96
83 100
84 3
84 7
84 11
84 12
84 15
84 16
84 17
84 20
84 24
84 25
84 27
84 28
84 30
84 31
84 34
84 35
84 38
84 39
84 41
84 42
84 47
84 49
84 57
84 58
84 61
84 64
84 65
84 69
84 77
84 78
84 81
84 92
84 93
84 98
84 100
85 2
85 3
85 4
85 8
85 9
85 14
85 15
85 17
85 18
85 26
85 30
85 32
85 33
85 35
85 36
85 39
85 41
85 45
85 46
85 49
85 51
85 53
85 56
85 62
85 69
85 71
85 74
85 78
85 79
85 81
85 84
85 88
85 89
85 90
85 94
85 96
85 98
86 1
86 3
86 4
86 5
86 10
86 13
86 14
86 21
86 22
86 37
86 41
86 43
86 46
86 49
86 52
86 58
86 59
86 62
86 63
86 67
86 72
86 74
86 75
86 76
86 79
86 83
86 84
86 89
86 90
86 91
86 92
86 95
86 98
86 99
87 2
87 5
87 10
87 14
87 15
87 18
87 22
87 23
87 26
87 28
87 34
87 35
87 39
87 44
87 49
87 51
87 52
87 53
87 54
87 58
87 62
87 63
87 64
87 66
87 67
87 70
87 71
87 73
87 74
87 75
87 76
87 77
87 78
87 84
87 85
87 88
87 92
87 93
87 96
87 97
87 98
87 100
88 2
88 3
88 4
88 5
88 9
88 10
88 11
88 13
88 14
88 16
88 19
88 20
88 27
88 28
88 30
88 31
88 33
88 34
88 35
88 37
88 38
88 41
88 42
88 48
88 49
88 52
88 53
88 56
88 57
88 59
88 60
88 63
88 67
88 71
88 72
88 74
88 82
88 86
88 87
88 91
88 92
88 97
88 98
88 99
88 100
89 1
89 2
89 3
89 5
89 6
89 7
89 8
89 11
89 12
89 14
89 17
89 21
89 29
89 30
89 31
89 36
89 40
89 41
89 44
89 46
89 48
89 51
89 52
89 53
89 55
89 56
89 61
89 63
89 66
89 73
89 74
89 75
89 84
89 87
89 88
89 92
89 93
89 94
89 95
89 96
89 97
89 98
89 99
90 1
90 6
90 7
90 9
90 10
90 11
90 12
90 17
90 21
90 22
90 25
90 28
90 34
90 36
90 37
90 39
90 40
90 42
90 43
90 45
90 46
90 47
90 48
90 50
90 53
90 57
90 61
90 63
90 65
90 67
90 68
90 69
90 72
90 77
90 79
90 81
90 85
90 89
90 95
91 2
91 3
91 5
91 8
91 12
91 13
91 15
91 16
91 17
91 18
91 19
91 23
91 24
91 28
91 29
91 31
91 33
91 34
91 36
91 37
91 38
91 39
91 40
91 48
91 49
91 50
91 53
91 54
91 55
91 58
91 59
91 60
91 64
91 68
91 69
91 73
91 75
91 76
91 77
91 78
91 79
91 81
91 90
91 92
91 98
92 6
92 7
92 8
92 14
92 19
92 20
92 31
92 35
92 36
92 37
92 47
92 56
92 58
92 60
92 66
92 72
92 75
92 81
92 83
92 90
92 93
92 95
92 96
92 98
93 1
93 4
93 5
93 6
93 7
93 12
93 18
93 22
93 28
93 30
93 31
93 34
93 35
93 38
93 39
93 50
93 52
93 53
93 60
93 63
93 64
93 65
93 67
93 73
93 74
93 75
93 76
93 82
93 84
93 86
93 88
93 94
93 95
93 96
93 100
94 1
94 2
94 9
94 10
94 11
94 12
94 13
94 16
94 19
94 26
94 30
94 33
94 54
94 61
94 63
94 67
94 73
94 74
94 89
94 97
94 98
94 99
95 1
95 3
95 11
95 12
95 17
95 20
95 22
95 23
95 24
95 25
95 26
95 27
95 28
95 29
95 31
95 34
95 36
95 39
95 42
95 45
95 46
95 47
95 49
95 52
95 53
95 57
95 60
95 63
95 66
95 74
95 76
95 83
95 84
95 86
95 87
95 89
95 94
95 96
95 97
96 2
96 3
96 5
96 7
96 9
96 14
96 19
96 20
96 21
96 23
96 27
96 28
96 29
96 31
96 32
96 33
96 34
96 35
96 39
96 41
96 42
96 46
96 47
96 49
96 62
96 69
96 70
96 71
96 72
96 73
96 74
96 77
96 78
96 79
96 81
96 83
96 86
96 87
96 91
96 94
96 97
96 99
96 100
97 2
97 6
97 7
97 12
97 19
97 21
97 24
97 28
97 34
97 35
97 37
97 39
97 40
97 42
97 43
97 46
97 47
97 48
97 50
97 51
97 52
97 55
97 58
97 62
97 68
97 69
97 71
97 75
97 76
97 77
97 78
97 81
97 87
97 91
97 92
97 95
98 7
98 8
98 13
98 17
98 19
98 21
98 23
98 26
98 30
98 31
98 34
98 35
98 37
98 39
98 40
98 42
98 44
98 48
98 52
98 53
98 55
98 58
98 64
98 68
98 71
98 72
98 73
98 76
98 85
98 91
98 92
98 93
98 94
98 100
99 1
99 2
99 4
99 5
99 6
99 10
99 11
99 13
99 14
99 19
99 20
99 22
99 23
99 25
99 34
99 35
99 40
99 41
99 44
99 46
99 48
99 51
99 56
99 57
99 58
99 63
99 64
99 66
99 67
99 71
99 72
99 73
99 74
99 76
99 77
99 78
99 81
99 82
99 86
99 96
99 97
99 98
100 1
100 3
100 4
100 5
100 6
100 8
100 9
100 13
100 14
100 15
100 16
100 19
100 20
100 21
100 22
100 29
100 31
100 36
100 37
100 41
100 42
100 43
100 44
100 50
100 51
100 52
100 53
100 55
100 56
100 60
100 63
100 64
100 65
100 66
100 68
100 70
100 72
100 75
100 82
100 84
100 85
100 86
100 93
100 95
100 98
-1
EOF
