Hamiltoninan_Cycle/benchmarks_directed/graph100.sol
NAME : P = NP
COMMENT : H Algorithm Solution by Oscar Riveros
TYPE : TOUR
DIMENSION : 100
TOUR_SECTION
14
79
91
5
2
31
83
33
70
34
96
27
15
87
62
13
36
69
40
81
92
20
12
19
82
26
94
74
38
28
58
76
99
57
43
80
6
61
46
4
88
63
39
23
54
49
45
72
30
97
50
78
55
41
65
51
89
48
10
68
22
64
60
24
52
95
3
47
66
16
59
44
71
21
25
18
29
17
90
11
77
75
53
32
73
1
93
84
42
7
8
56
9
85
98
35
67
86
37
100
-1
EOF
